Cebu_City_Philippines-_10
41644
25866
31016
43125
14469
4367
180690
1489935
27351
27411
32407
30144
34426
29531
43983
48416
72301
71891
657435
2078340
453859
2285718
239680
943605
1533835
248187
166592
48615
589118
45511
6746036
4291163
229005
240296
2242817
3708556
41122
1733768
624903
5622209
359411
740937
1065492
7891680
11948989
36104
64660
74522
57896
814004
532840
283740
365964
25650
7611845
456306
1276938
2575505
114810
309727
3920085
2295217
646313
486243
1964708
55039
531295
1754551
6896753
112403
24246
146446
1167987
28215
1029705
31263
3403692
361581
1406080
1563955
2682206
883605
614902
443035
1140218
247972
586496
355679
2480185
358760
251841
1279058
801502
454420
520523
34656
1103448
42469
40120
3101776
574873
1857416
629987
28972
5094811
57841
921074
36061
532157
1119617
1202330
2798628
56090
1589397
113008
1875608
326703
317200
339326
98899
8628745
2147895
432473
213018
194
889136
49365
32173
256952
31957
6702274
431879
1808878
35741
3277207
19752
52688
3018645
24589
1188345
58577
1473080
1982928
25527864
31456
327944
140982
71938
41690
1872018
693603
7274019

